(set-info :status unsat) ; swine result
(set-logic ALL)
(declare-fun i1 () Int)
(declare-fun i7 () Int)
(declare-fun i3 () Int)
(declare-fun it1 () Int)
(declare-fun it2 () Int)
(declare-fun i2 () Int)
(declare-fun it3 () Int)
(declare-fun it4 () Int)
(declare-fun i4 () Int)
(declare-fun it5 () Int)
(declare-fun i5 () Int)
(declare-fun it6 () Int)
(declare-fun i6 () Int)
(declare-fun it7 () Int)
(declare-fun it190 () Int)
(declare-fun it160 () Int)
(declare-fun it81 () Int)
(declare-fun it193 () Int)
(declare-fun it194 () Int)
(declare-fun it195 () Int)
(declare-fun it196 () Int)
(declare-fun it197 () Int)
(declare-fun it198 () Int)
(declare-fun it199 () Int)
(declare-fun it202 () Int)
(declare-fun it218 () Int)
(declare-fun it219 () Int)
(declare-fun it220 () Int)
(declare-fun it221 () Int)
(declare-fun it222 () Int)
(declare-fun it223 () Int)
(declare-fun it224 () Int)
(declare-fun it15 () Int)
(declare-fun it225 () Int)
(assert (and (> i3 0) (> i7 0) (= (+ i1 (- 1)) 0)))
(assert (= (+ it1 (- 2)) 0))
(assert (= (+ (* i2 (- 1)) it2 (- 1)) 0))
(assert (= (+ (* i3 (- 1)) it3) 0))
(assert (= (+ (* i4 (- 1)) it4) 0))
(assert (= (+ (* i5 (- 1)) it5) 0))
(assert (= (+ (* i6 (- 1)) it6) 0))
(assert (= (+ it7 (* i7 (- 1))) 0))
(assert (let ((a!1 (+ (+ it7 (* it81 (+ it190 (- 1)) (- 2)))
              (* it160 (- 2))
              (* it81 (- 2))))
      (a!2 (> (+ (+ it7 (* it81 (- 2))) 2) 0))
      (a!3 (+ (+ it7 (* it81 (+ it190 (- 1)) (- 2))) (* it81 (- 2))))
      (a!4 (> (+ (+ it7 (* it81 (- 2))) 1) 0))
      (a!5 (> (+ (+ it7 (* it160 (- 2)) (* it81 (- 2))) 2) 0))
      (a!6 (+ (+ it7 (* it81 (+ it190 (- 1)) (- 2))) (- 1)))
      (a!7 (> (+ (+ it7 (* it160 (- 2)) (* it81 (- 2))) 3) 0)))
  (and (> (+ a!1 2) 0)
       (>= (+ it1 (- 2)) 0)
       a!2
       (>= (+ (* it1 (- 1)) 2) 0)
       (> it7 0)
       (> (+ a!1 3) 0)
       (> (+ a!3 1) 0)
       a!4
       a!5
       (> a!6 0)
       (>= (+ it81 (- 1)) 0)
       (> (+ a!3 2) 0)
       (> (+ it7 (- 1)) 0)
       a!7
       (>= (+ it160 (- 1)) 0)
       (>= (+ it190 (- 1)) 0))))
(assert (= (+ (* it1 (- 1)) it193) 0))
(assert (= (+ (* it190 it160 (- 2)) (* it2 (- 1)) (* it190 it81 (- 4)) it194) 0))
(assert (= (+ (* it7 (- 1))
      (* it81 (+ it190 (- 1)) 2)
      it195
      (* it160 2)
      (* it81 2)
      (- 1))
   0))
(assert (let ((a!1 (+ 0 (+ it7 (* it81 (+ it190 (- 1)) (- 2)) (* it81 (- 2)) 1))))
  (= (+ (* a!1 (exp (- 1) it160) (+ 0 (- 2))) (+ 0 it196)) (+ 0 0))))
(assert (let ((a!1 (+ 0 (+ it7 (* it81 (+ it190 (- 1)) (- 2)) (* it81 (- 2)) 1))))
  (= (+ (* a!1 (exp (- 1) it160) (+ 0 (- 3))) (+ 0 it197)) (+ 0 0))))
(assert (let ((a!1 (+ it7 (* (* it81 (+ it190 (- 1))) (- 2)) (* it81 (- 2)) 1))
      (a!2 (+ 0 (* (* it81 (+ it190 (- 1))) 6))))
  (= (+ (* (+ 0 a!1) (exp it160 2) (+ 0 12))
        (+ 0 (* it7 (- 3)))
        a!2
        (+ 0 (* a!1 it160 (- 6)))
        (+ 0 (* it198 3))
        (* (exp it160 2) (+ 0 6))
        (+ 0 (* it160 (- 1)))
        (* (exp a!1 2) (+ 0 it160) (+ 0 (- 6)))
        (* (exp it160 3) (+ 0 (- 8)))
        (+ 0 (* it81 6))
        (+ 0 (- 6)))
     (+ 0 0))))
(assert (= (+ (* it7 (- 1)) it199 (* it190 it81 2)) 0))
(assert (let ((a!1 (> (+ (+ (* it202 (- 2)) it199) 1) 0))
      (a!2 (> (+ (+ (* it202 (- 2)) it199) 2) 0)))
  (and (> it199 0)
       (>= (+ it202 (- 1)) 0)
       (>= (+ it193 (- 2)) 0)
       a!1
       (>= (+ (* it193 (- 1)) 2) 0)
       a!2
       (> (+ it199 (- 1)) 0))))
(assert (= (+ it218 (* it193 (- 1))) 0))
(assert (= (+ (* it202 (- 4)) it219 (* it194 (- 1))) 0))
(assert (= (+ (* it202 2) (* it199 (- 1)) it220 (- 1)) 0))
(assert (= (+ it221 (* it202 4) (* it199 (- 2)) (- 2)) 0))
(assert (= (+ (* it202 6) it222 (* it199 (- 3)) (- 3)) 0))
(assert (= (+ (* it202 2) (* it199 (- 1)) it223 (- 2)) 0))
(assert (= (+ it224 (* it202 2) (* it199 (- 1))) 0))
(assert (let ((a!1 (> (+ (+ it224 (* it225 (- 2))) 1) 0))
      (a!2 (> (+ (+ it224 (* it225 (- 2))) 2) 0))
      (a!3 (> (+ (+ (* it15 (- 2)) it220) 1) 0))
      (a!4 (> (+ (+ (* it15 (- 2)) it220) 2) 0)))
  (and (> it224 0)
       (>= (+ it15 (- 1)) 0)
       (>= (+ (* it218 (- 1)) 2) 0)
       (>= (+ it218 (- 2)) 0)
       (<= (* it225 2) 0)
       (> (+ it224 (- 1)) 0)
       (= (* it225 2) 0)
       (= 0 0)
       (= (+ (* it224 (- 1)) (* it225 2) it220 (- 1)) 0)
       (>= (+ it225 (- 1)) 0)
       a!1
       a!2
       a!3
       a!4)))
(check-sat)
